data/solutions/recovery/wellformed/intermediate/binding/wellformed_intermediate_instance41/100.sol
Elapsed time: 100.39
Upper bound: 263098.0
Planning weighted value: 1026290254.0
C[0]=263098.0
C[1]=263089.0
C[2]=263076.0
C[3]=263065.0
C[4]=263051.0
C[5]=263038.0
C[6]=263031.0
C[7]=263010.0
C[8]=263001.0
C[9]=263000.0
C[10]=262910.0
C[11]=0.0
y[0]=3
y[1]=0
y[2]=3
y[3]=6
y[4]=9
y[5]=9
y[6]=5
y[7]=0
y[8]=1
y[9]=10
y[10]=1
y[11]=1
y[12]=4
y[13]=9
y[14]=8
y[15]=9
y[16]=7
y[17]=8
y[18]=3
y[19]=0
y[20]=2
y[21]=1
y[22]=0
y[23]=8
y[24]=5
y[25]=7
y[26]=0
y[27]=3
y[28]=9
y[29]=3
y[30]=0
y[31]=0
y[32]=0
y[33]=4
y[34]=1
y[35]=10
y[36]=6
y[37]=2
y[38]=3
y[39]=3
y[40]=4
y[41]=6
y[42]=6
y[43]=6
y[44]=8
y[45]=0
y[46]=2
y[47]=8
y[48]=9
y[49]=4
y[50]=10
y[51]=5
y[52]=1
y[53]=0
y[54]=8
y[55]=4
y[56]=2
y[57]=4
y[58]=9
y[59]=6
y[60]=6
y[61]=10
y[62]=1
y[63]=5
y[64]=2
y[65]=4
y[66]=1
y[67]=6
y[68]=8
y[69]=8
y[70]=10
y[71]=0
y[72]=6
y[73]=5
y[74]=4
y[75]=8
y[76]=5
y[77]=8
y[78]=4
y[79]=9
y[80]=3
y[81]=2
y[82]=6
y[83]=2
y[84]=5
y[85]=9
y[86]=10
y[87]=3
y[88]=8
y[89]=2
y[90]=1
y[91]=10
y[92]=1
y[93]=7
y[94]=4
y[95]=7
y[96]=10
y[97]=10
y[98]=0
y[99]=7
y[100]=0
y[101]=8
y[102]=6
y[103]=7
y[104]=5
y[105]=6
y[106]=8
y[107]=0
y[108]=5
y[109]=7
y[110]=1
y[111]=3
y[112]=10
y[113]=5
y[114]=1
y[115]=0
y[116]=8
y[117]=6
y[118]=9
y[119]=8
y[120]=4
y[121]=1
y[122]=10
y[123]=8
y[124]=5
y[125]=3
y[126]=1
y[127]=0
y[128]=8
y[129]=5
y[130]=10
y[131]=2
y[132]=6
y[133]=8
y[134]=1
y[135]=5
y[136]=8
y[137]=6
y[138]=6
y[139]=0
y[140]=4
y[141]=2
y[142]=2
y[143]=5
y[144]=9
y[145]=9
y[146]=2
y[147]=3
y[148]=5
y[149]=8
y[150]=8
y[151]=8
y[152]=4
y[153]=3
y[154]=7
y[155]=7
y[156]=2
y[157]=10
y[158]=5
y[159]=3
y[160]=0
y[161]=2
y[162]=0
y[163]=0
y[164]=3
y[165]=6
y[166]=1
y[167]=4
y[168]=4
y[169]=5
y[170]=9
y[171]=2
y[172]=1
y[173]=10
y[174]=4
y[175]=10
y[176]=4
y[177]=9
y[178]=7
y[179]=2
y[180]=7
y[181]=1
y[182]=7
y[183]=5
y[184]=3
y[185]=1
y[186]=6
y[187]=1
y[188]=2
y[189]=2
y[190]=5
y[191]=4
y[192]=0
y[193]=7
y[194]=3
y[195]=7
y[196]=2
y[197]=5
y[198]=3
y[199]=1
y[200]=5
y[201]=1
y[202]=3
y[203]=1
y[204]=0
y[205]=5
y[206]=3
y[207]=4
y[208]=2
y[209]=7
y[210]=4
y[211]=7
y[212]=9
y[213]=4
y[214]=9
y[215]=6
y[216]=8
y[217]=5
y[218]=5
y[219]=10
y[220]=8
y[221]=9
y[222]=10
y[223]=7
y[224]=10
y[225]=10
y[226]=1
y[227]=4
y[228]=8
y[229]=4
y[230]=5
y[231]=3
y[232]=8
y[233]=10
y[234]=3
y[235]=0
y[236]=4
y[237]=3
y[238]=9
y[239]=5
y[240]=2
y[241]=1
y[242]=10
y[243]=6
y[244]=1
y[245]=1
y[246]=2
y[247]=5
y[248]=9
y[249]=1
y[250]=4
y[251]=10
y[252]=9
y[253]=4
y[254]=9
y[255]=9
y[256]=10
y[257]=1
y[258]=10
y[259]=9
y[260]=0
y[261]=6
y[262]=10
y[263]=5
y[264]=7
y[265]=8
y[266]=10
y[267]=5
y[268]=4
y[269]=8
y[270]=9
y[271]=3
y[272]=0
y[273]=6
y[274]=1
y[275]=1
y[276]=6
y[277]=2
y[278]=5
y[279]=7
y[280]=2
y[281]=1
y[282]=7
y[283]=2
y[284]=10
y[285]=0
y[286]=7
y[287]=7
y[288]=1
y[289]=10
y[290]=3
y[291]=4
y[292]=2
y[293]=7
y[294]=10
y[295]=2
y[296]=9
y[297]=0
y[298]=5
y[299]=1
y[300]=3
y[301]=4
y[302]=3
y[303]=7
y[304]=0
y[305]=6
y[306]=5
y[307]=1
y[308]=4
y[309]=7
y[310]=7
y[311]=9
