data/solutions/recovery/wellformed/intermediate/binding/wellformed_intermediate_instance41/100.log

Log started (V12.6.3.0) Fri Apr 20 20:33:57 2018

New value for default parallel thread count: 1

Problem '/tmp/tmplK8cQK.pyomo.lp' read.
Read time = 0.13 sec. (12.60 ticks)

Problem name         : /tmp/tmplK8cQK.pyomo.lp
Objective sense      : Minimize
Variables            :    3758  [Nneg: 1,  Binary: 3744,  General Integer: 13]
Objective nonzeros   :       1
Linear constraints   :     650  [Less: 324,  Equal: 326]
  Nonzeros           :  934237
  RHS nonzeros       :     313

Variables            : Min LB: 0.000000         Max UB: 1.000000       
Objective nonzeros   : Min   : 1.000000         Max   : 1.000000       
Linear constraints   :
  Nonzeros           : Min   : 1.000000         Max   : 19298.00       
  RHS nonzeros       : Min   : 1.000000         Max   : 1.000000       
Tried aggregator 2 times.
MIP Presolve eliminated 587 rows and 3295 columns.
Aggregator did 11 substitutions.
Reduced MIP has 52 rows, 452 columns, and 913 nonzeros.
Reduced MIP has 451 binaries, 1 generals, 0 SOSs, and 0 indicators.
Presolve time = 0.03 sec. (57.72 ticks)
Found incumbent of value 626257.000000 after 0.07 sec. (79.46 ticks)
Probing time = 0.00 sec. (0.47 ticks)
Tried aggregator 1 time.
Reduced MIP has 52 rows, 452 columns, and 913 nonzeros.
Reduced MIP has 451 binaries, 1 generals, 0 SOSs, and 0 indicators.
Presolve time = 0.00 sec. (0.72 ticks)
Probing time = 0.00 sec. (0.47 ticks)
Clique table members: 41.
MIP emphasis: balance optimality and feasibility.
MIP search method: dynamic search.
Parallel mode: none, using 1 thread.
Root relaxation solution time = 0.00 sec. (0.92 ticks)

        Nodes                                         Cuts/
   Node  Left     Objective  IInf  Best Integer    Best Bound    ItCnt     Gap

*     0+    0                       626257.0000   252629.0000            59.66%
      0     0   263033.5455    21   626257.0000   263033.5455       83   58.00%
*     0+    0                       275780.0000   263033.5455             4.62%
      0     0   263034.0000    22   275780.0000      Fract: 5      100    4.62%
*     0+    0                       275262.0000   263034.0000             4.44%
      0     0   263034.0000    28   275262.0000      Cuts: 18      140    4.44%
*     0+    0                       273914.0000   263034.0000             3.97%
*     0+    0                       270443.0000   263034.0000             2.74%
*     0+    0                       270181.0000   263034.0000             2.65%
      0     2   263034.0000    15   270181.0000   263034.0000      140    2.65%
Elapsed time = 0.09 sec. (101.71 ticks, tree = 0.01 MB, solutions = 6)
*    10+   10                       269048.0000   263034.0000             2.24%
*    20+   18                       268307.0000   263034.0000             1.97%
*    20+   18                       267936.0000   263034.0000             1.83%
*    30+   24                       266249.0000   263034.0000             1.21%
*    40+   30                       265212.0000   263034.0000             0.82%
*    70+   54                       264945.0000   263034.0000             0.72%
*   130+  108                       264837.0000   263034.0000             0.68%
*   150+  119                       264743.0000   263034.0000             0.65%
*   170+  126                       264409.0000   263034.0000             0.52%
*   180+  132                       263818.0000   263034.0000             0.30%
*   210+  156                       263743.0000   263034.0000             0.27%
*   474+  398                       263689.0000   263034.0000             0.25%
*   474+  324                       263537.0000   263034.0000             0.19%
*   475+  316                       263505.0000   263034.0000             0.18%
*   576+  237                       263442.0000   263034.0000             0.15%
    576   239   263034.0000    18   263442.0000   263034.0000     2612    0.15%
    577   240   263034.0000    19   263442.0000   263034.0000     2617    0.15%
    578   241   263034.0000    19   263442.0000   263034.0000     2619    0.15%
    579   242   263034.0000    19   263442.0000   263034.0000     2621    0.15%
    580   243   263034.0000    19   263442.0000   263034.0000     2627    0.15%
    581   243   263034.0000    19   263442.0000   263034.0000     2632    0.15%
    582   244   263034.0000    19   263442.0000   263034.0000     2633    0.15%
    583   244   263034.0000    19   263442.0000   263034.0000     2643    0.15%
    584   244   263034.0000    20   263442.0000   263034.0000     2645    0.15%
*   676+  236                       263399.0000   263034.0000             0.14%
*   676+  207                       263342.0000   263034.0000             0.12%
*  1001   376      integral     0   263271.0000   263034.0000     4393    0.09%
*  1076+  428                       263251.0000   263034.0000             0.08%
   1176   507   263068.0000    18   263251.0000   263034.0000     5074    0.08%
Elapsed time = 0.99 sec. (1088.49 ticks, tree = 0.21 MB, solutions = 25)
  10439  8522   263120.0000    12   263251.0000   263034.0000    28751    0.08%
  10440  8523   263120.0000    13   263251.0000   263034.0000    28753    0.08%
  10441  8524   263120.0000    13   263251.0000   263034.0000    28757    0.08%
  10442  8525   263120.0000    13   263251.0000   263034.0000    28760    0.08%
  10443  8526   263120.0000    12   263251.0000   263034.0000    28762    0.08%
  10444  8527   263120.0000    13   263251.0000   263034.0000    28765    0.08%
  10445  8528   263120.0000    12   263251.0000   263034.0000    28768    0.08%
  10446  8529   263120.0000    13   263251.0000   263034.0000    28771    0.08%
  10447  8530   263120.0000    13   263251.0000   263034.0000    28772    0.08%
  10448  8531   263120.0000    13   263251.0000   263034.0000    28773    0.08%
Elapsed time = 1.87 sec. (2042.70 ticks, tree = 3.69 MB, solutions = 25)
  23933 19470   263103.0000    12   263251.0000   263034.0000    61331    0.08%
  23934 19471   263103.0000    12   263251.0000   263034.0000    61332    0.08%
  23935 19472   263103.0000    12   263251.0000   263034.0000    61333    0.08%
  23936 19473   263103.0000    12   263251.0000   263034.0000    61334    0.08%
  23937 19474   263103.0000    12   263251.0000   263034.0000    61335    0.08%
  23938 19475   263103.0000    12   263251.0000   263034.0000    61336    0.08%
  23939 19476   263127.8571    11   263251.0000   263034.0000    61337    0.08%
  23940 19477   263127.8571    11   263251.0000   263034.0000    61338    0.08%
  23941 19478   263127.8571    11   263251.0000   263034.0000    61339    0.08%
  23942 19479   263127.8571    10   263251.0000   263034.0000    61340    0.08%
Elapsed time = 2.72 sec. (2996.92 ticks, tree = 8.53 MB, solutions = 25)
  37121 29940   263034.0000    17   263251.0000   263034.0000    93322    0.08%
  37122 29941   263034.0000    17   263251.0000   263034.0000    93324    0.08%
  37123 29942   263034.0000    18   263251.0000   263034.0000    93326    0.08%
  37124 29943   263034.0000    18   263251.0000   263034.0000    93327    0.08%
  37125 29944   263044.0000    16   263251.0000   263034.0000    93328    0.08%
  37126 29943        cutoff         263251.0000   263034.0000    93330    0.08%
  37127 29944   263044.0000    16   263251.0000   263034.0000    93331    0.08%
  37128 29945   263045.6667    15   263251.0000   263034.0000    93333    0.08%
  37129 29946   263045.6667    15   263251.0000   263034.0000    93335    0.08%
  37130 29947   263045.6667    15   263251.0000   263034.0000    93337    0.08%
Elapsed time = 3.56 sec. (3952.01 ticks, tree = 12.70 MB, solutions = 25)
  50094 40611   263120.3333    11   263251.0000   263034.0000   124248    0.08%
  50095 40612   263120.3333    11   263251.0000   263034.0000   124249    0.08%
  50096 40613   263120.3333    11   263251.0000   263034.0000   124250    0.08%
  50097 40614   263120.3333    11   263251.0000   263034.0000   124251    0.08%
  50098 40615   263120.3333    11   263251.0000   263034.0000   124252    0.08%
  50099 40614        cutoff         263251.0000   263034.0000   124254    0.08%
  50100 40613        cutoff         263251.0000   263034.0000   124255    0.08%
  50101 40612        cutoff         263251.0000   263034.0000   124258    0.08%
  50102 40613   263228.4000    16   263251.0000   263034.0000   124265    0.08%
  50103 40614   263228.4000    16   263251.0000   263034.0000   124266    0.08%
Elapsed time = 4.40 sec. (4906.51 ticks, tree = 17.92 MB, solutions = 25)
  64137 52098   263034.0000    16   263251.0000   263034.0000   158255    0.08%
  64138 52099   263034.0000    16   263251.0000   263034.0000   158257    0.08%
  64139 52100   263034.0000    16   263251.0000   263034.0000   158258    0.08%
  64140 52101   263034.0000    16   263251.0000   263034.0000   158259    0.08%
  64141 52101   263034.0000    16   263251.0000   263034.0000   158260    0.08%
  64142 52102   263034.0000    15   263251.0000   263034.0000   158266    0.08%
  64143 52103   263124.2857    14   263251.0000   263034.0000   158268    0.08%
  64144 52104   263124.2857    13   263251.0000   263034.0000   158269    0.08%
  64145 52104   263124.2857    14   263251.0000   263034.0000   158272    0.08%
  64146 52105   263124.2857    12   263251.0000   263034.0000   158275    0.08%
Elapsed time = 5.24 sec. (5860.78 ticks, tree = 22.54 MB, solutions = 25)
  76144 61045   263201.6667    12   263251.0000   263034.0000   188031    0.08%
  76145 61046   263243.0000     9   263251.0000   263034.0000   188041    0.08%
  76146 61047   263243.0000     9   263251.0000   263034.0000   188043    0.08%
  76147 61048   263243.0000     9   263251.0000   263034.0000   188044    0.08%
  76148 61049   263243.0000     9   263251.0000   263034.0000   188045    0.08%
  76149 61050   263243.0000     9   263251.0000   263034.0000   188046    0.08%
  76150 61051   263243.0000     9   263251.0000   263034.0000   188047    0.08%
  76151 61050        cutoff         263251.0000   263034.0000   188048    0.08%
  76152 61049        cutoff         263251.0000   263034.0000   188050    0.08%
  76153 61050   263120.0000    14   263251.0000   263034.0000   188064    0.08%
Elapsed time = 6.10 sec. (6815.06 ticks, tree = 26.17 MB, solutions = 25)
  87392 69719        cutoff         263251.0000   263034.0000   215467    0.08%
  87393 69720   263034.0000    17   263251.0000   263034.0000   215473    0.08%
  87394 69721   263034.0000    18   263251.0000   263034.0000   215475    0.08%
  87395 69722   263063.0000    17   263251.0000   263034.0000   215478    0.08%
  87396 69723   263063.0000    17   263251.0000   263034.0000   215479    0.08%
  87397 69724   263072.2000    18   263251.0000   263034.0000   215481    0.08%
  87398 69725   263072.2000    18   263251.0000   263034.0000   215483    0.08%
  87399 69726   263088.1111    16   263251.0000   263034.0000   215490    0.08%
  87400 69727   263101.5000    14   263251.0000   263034.0000   215496    0.08%
  87401 69727   263101.5000    14   263251.0000   263034.0000   215497    0.08%
Elapsed time = 6.96 sec. (7769.85 ticks, tree = 31.61 MB, solutions = 25)
  98992 78660   263173.7500    13   263251.0000   263034.0000   244259    0.08%
  98993 78661   263173.7500    13   263251.0000   263034.0000   244260    0.08%
  98994 78662   263173.7500    13   263251.0000   263034.0000   244261    0.08%
  98995 78663   263173.7500    13   263251.0000   263034.0000   244262    0.08%
  98996 78664   263173.7500    13   263251.0000   263034.0000   244263    0.08%
  98997 78665   263173.7500    13   263251.0000   263034.0000   244264    0.08%
  98998 78665   263173.7500    13   263251.0000   263034.0000   244265    0.08%
  98999 78664        cutoff         263251.0000   263034.0000   244266    0.08%
  99000 78663        cutoff         263251.0000   263034.0000   244273    0.08%
  99001 78664   263034.0000    17   263251.0000   263034.0000   244277    0.08%
Elapsed time = 7.83 sec. (8724.82 ticks, tree = 35.18 MB, solutions = 25)
 111202 88154   263034.0000    15   263251.0000   263034.0000   275339    0.08%
 111203 88155   263034.0000    16   263251.0000   263034.0000   275342    0.08%
 111204 88156   263034.0000    16   263251.0000   263034.0000   275343    0.08%
 111205 88157   263034.0000    16   263251.0000   263034.0000   275344    0.08%
 111206 88158   263034.0000    15   263251.0000   263034.0000   275345    0.08%
 111207 88159   263034.0000    15   263251.0000   263034.0000   275347    0.08%
 111208 88160   263034.0000    15   263251.0000   263034.0000   275350    0.08%
 111209 88161   263034.0000    15   263251.0000   263034.0000   275352    0.08%
 111210 88162   263034.0000    16   263251.0000   263034.0000   275360    0.08%
 146317 114728   263071.5556    15   263251.0000   263034.0000   357615    0.08%
Elapsed time = 11.26 sec. (12539.54 ticks, tree = 49.68 MB, solutions = 25)
 192448 147857   263140.3750    13   263251.0000   263034.0000   469310    0.08%
 192449 147856        cutoff         263251.0000   263034.0000   469312    0.08%
 192450 147857   263034.0000    15   263251.0000   263034.0000   469317    0.08%
 192451 147858   263034.0000    15   263251.0000   263034.0000   469319    0.08%
 192452 147859   263034.0000    15   263251.0000   263034.0000   469320    0.08%
 192453 147860   263034.0000    15   263251.0000   263034.0000   469322    0.08%
 192454 147861   263034.0000    16   263251.0000   263034.0000   469325    0.08%
 192455 147862   263034.0000    16   263251.0000   263034.0000   469326    0.08%
 192456 147863   263034.0000    16   263251.0000   263034.0000   469328    0.08%
 192457 147864   263034.0000    16   263251.0000   263034.0000   469334    0.08%
Elapsed time = 14.68 sec. (16354.92 ticks, tree = 64.77 MB, solutions = 25)
 239473 180429   263107.6667    12   263251.0000   263034.0000   585801    0.08%
 239474 180430   263107.6667    13   263251.0000   263034.0000   585804    0.08%
 239475 180430   263107.6667    13   263251.0000   263034.0000   585805    0.08%
 239476 180429        cutoff         263251.0000   263034.0000   585806    0.08%
 239477 180430   263034.0000    17   263251.0000   263034.0000   585811    0.08%
 239478 180431   263034.0000    16   263251.0000   263034.0000   585818    0.08%
 239479 180432   263034.0000    16   263251.0000   263034.0000   585822    0.08%
 239480 180433   263034.0000    15   263251.0000   263034.0000   585824    0.08%
 239481 180432        cutoff         263251.0000   263034.0000   585828    0.08%
 239482 180433   263174.1250    13   263251.0000   263034.0000   585834    0.08%
Elapsed time = 18.11 sec. (20171.29 ticks, tree = 79.12 MB, solutions = 25)
 277124 203507   263034.0000    16   263251.0000   263034.0000   685513    0.08%
 277125 203508   263034.0000    16   263251.0000   263034.0000   685514    0.08%
 277126 203509   263052.4444    15   263251.0000   263034.0000   685519    0.08%
 277127 203510   263052.4444    15   263251.0000   263034.0000   685520    0.08%
 277128 203511   263065.0000    13   263251.0000   263034.0000   685521    0.08%
 277129 203512   263065.0000    13   263251.0000   263034.0000   685522    0.08%
 277130 203513   263065.0000    13   263251.0000   263034.0000   685523    0.08%
 277131 203512        cutoff         263251.0000   263034.0000   685526    0.08%
 277132 203511        cutoff         263251.0000   263034.0000   685529    0.08%
 277133 203512   263034.0000    17   263251.0000   263034.0000   685533    0.08%
Elapsed time = 21.67 sec. (23987.68 ticks, tree = 89.89 MB, solutions = 25)
 311544 222900   263071.0000    14   263251.0000   263034.0000   780055    0.08%
 311545 222901   263071.0000    14   263251.0000   263034.0000   780056    0.08%
 311546 222902   263071.0000    13   263251.0000   263034.0000   780058    0.08%
 311547 222903   263071.0000    14   263251.0000   263034.0000   780059    0.08%
 311548 222904   263071.0000    14   263251.0000   263034.0000   780061    0.08%
 311549 222905   263071.0000    14   263251.0000   263034.0000   780062    0.08%
 311550 222906   263071.0000    14   263251.0000   263034.0000   780064    0.08%
 311551 222907   263217.8000     8   263251.0000   263034.0000   780070    0.08%
 311552 222908   263217.8000     9   263251.0000   263034.0000   780071    0.08%
 311553 222909   263217.8000     8   263251.0000   263034.0000   780072    0.08%
Elapsed time = 25.16 sec. (27803.07 ticks, tree = 97.92 MB, solutions = 25)
 346617 240582   263034.0000    17   263251.0000   263034.0000   884343    0.08%
 346618 240583   263034.0000    17   263251.0000   263034.0000   884348    0.08%
 346619 240584   263111.1429    16   263251.0000   263034.0000   884354    0.08%
 346620 240585   263111.1429    17   263251.0000   263034.0000   884355    0.08%
 346621 240586   263111.1429    16   263251.0000   263034.0000   884357    0.08%
 346622 240587   263111.1429    15   263251.0000   263034.0000   884358    0.08%
 346623 240588   263111.1429    16   263251.0000   263034.0000   884360    0.08%
 346624 240589   263111.1429    17   263251.0000   263034.0000   884362    0.08%
 346625 240589   263111.1429    18   263251.0000   263034.0000   884364    0.08%
 346626 240590   263111.1429    18   263251.0000   263034.0000   884367    0.08%
Elapsed time = 28.72 sec. (31619.41 ticks, tree = 106.87 MB, solutions = 25)
 385924 267473        cutoff         263251.0000   263034.0000   986487    0.08%
 385925 267472        cutoff         263251.0000   263034.0000   986491    0.08%
 385926 267473   263034.0000    18   263251.0000   263034.0000   986504    0.08%
 385927 267474   263034.0000    18   263251.0000   263034.0000   986505    0.08%
 385928 267475   263034.0000    18   263251.0000   263034.0000   986506    0.08%
 385929 267476   263034.0000    18   263251.0000   263034.0000   986507    0.08%
 385930 267477   263034.0000    16   263251.0000   263034.0000   986511    0.08%
 385931 267478   263034.0000    15   263251.0000   263034.0000   986515    0.08%
 385932 267479   263034.0000    16   263251.0000   263034.0000   986517    0.08%
 385933 267480   263034.0000    15   263251.0000   263034.0000   986523    0.08%
Elapsed time = 32.21 sec. (35434.74 ticks, tree = 117.75 MB, solutions = 25)
 429368 299718   263198.4286    13   263251.0000   263034.0000  1093684    0.08%
 429369 299719   263198.4286    13   263251.0000   263034.0000  1093685    0.08%
 429370 299720   263198.4286    13   263251.0000   263034.0000  1093686    0.08%
 429371 299721   263198.4286    13   263251.0000   263034.0000  1093687    0.08%
 429372 299722   263198.4286    13   263251.0000   263034.0000  1093688    0.08%
 429373 299722   263198.4286    13   263251.0000   263034.0000  1093689    0.08%
 429374 299721        cutoff         263251.0000   263034.0000  1093690    0.08%
 429375 299722   263034.0000    17   263251.0000   263034.0000  1093696    0.08%
 429376 299723   263034.0000    16   263251.0000   263034.0000  1093697    0.08%
 429377 299724   263034.0000    16   263251.0000   263034.0000  1093701    0.08%
Elapsed time = 35.70 sec. (39249.95 ticks, tree = 132.54 MB, solutions = 25)
*432576+292103                       263243.0000   263034.0000             0.08%
*457143 262493      integral     0   263205.0000   263034.0000  1161484    0.06%
 473597 275627   263034.0000    15   263205.0000   263034.0000  1198429    0.06%
 473598 275628   263034.0000    15   263205.0000   263034.0000  1198430    0.06%
 473599 275629   263034.0000    17   263205.0000   263034.0000  1198432    0.06%
 473600 275630   263054.8000    16   263205.0000   263034.0000  1198436    0.06%
 473601 275631   263054.8000    16   263205.0000   263034.0000  1198437    0.06%
 473602 275630        cutoff         263205.0000   263034.0000  1198441    0.06%
 473603 275631   263111.3333    15   263205.0000   263034.0000  1198446    0.06%
 473604 275632   263111.3333    15   263205.0000   263034.0000  1198447    0.06%
 473605 275633   263111.3333    15   263205.0000   263034.0000  1198448    0.06%
 473606 275634   263111.3333    15   263205.0000   263034.0000  1198449    0.06%
Elapsed time = 39.19 sec. (43065.35 ticks, tree = 122.01 MB, solutions = 27)
 518753 310837   263034.0000    14   263205.0000   263034.0000  1302649    0.06%
 518754 310838   263034.0000    15   263205.0000   263034.0000  1302651    0.06%
 518755 310839   263034.0000    20   263205.0000   263034.0000  1302660    0.06%
 518756 310840   263093.5000    17   263205.0000   263034.0000  1302665    0.06%
 518757 310841   263093.5000    18   263205.0000   263034.0000  1302666    0.06%
 518758 310842   263093.5000    17   263205.0000   263034.0000  1302670    0.06%
 518759 310843   263093.5000    17   263205.0000   263034.0000  1302674    0.06%
 518760 310844   263093.5000    17   263205.0000   263034.0000  1302676    0.06%
 518761 310845   263093.5000    17   263205.0000   263034.0000  1302677    0.06%
 518762 310846   263093.5000    16   263205.0000   263034.0000  1302678    0.06%
Elapsed time = 42.71 sec. (46880.76 ticks, tree = 135.71 MB, solutions = 27)
 567716 350449   263037.2222    14   263205.0000   263034.0000  1420086    0.06%
 567717 350450   263037.2222    14   263205.0000   263034.0000  1420090    0.06%
 567718 350451   263037.2222    15   263205.0000   263034.0000  1420098    0.06%
 567719 350452   263037.2222    15   263205.0000   263034.0000  1420100    0.06%
 567720 350453   263037.2222    15   263205.0000   263034.0000  1420102    0.06%
 567721 350454   263037.2222    15   263205.0000   263034.0000  1420104    0.06%
 567722 350455   263037.2222    15   263205.0000   263034.0000  1420106    0.06%
 567723 350456   263037.2222    15   263205.0000   263034.0000  1420108    0.06%
 567724 350457   263037.2222    15   263205.0000   263034.0000  1420111    0.06%
 567725 350458   263037.2222    15   263205.0000   263034.0000  1420113    0.06%
Elapsed time = 46.17 sec. (50696.11 ticks, tree = 153.59 MB, solutions = 27)
 612586 384970   263105.6000     9   263205.0000   263034.0000  1534304    0.06%
 612587 384971   263105.6000     8   263205.0000   263034.0000  1534305    0.06%
 612588 384972   263105.6000     9   263205.0000   263034.0000  1534306    0.06%
 612589 384973   263105.6000     8   263205.0000   263034.0000  1534307    0.06%
 612590 384974   263105.6000     9   263205.0000   263034.0000  1534309    0.06%
 612591 384975   263105.6000     9   263205.0000   263034.0000  1534312    0.06%
 612592 384976   263105.6000     9   263205.0000   263034.0000  1534313    0.06%
 612593 384977   263105.6000     9   263205.0000   263034.0000  1534316    0.06%
 612594 384978   263105.6000     9   263205.0000   263034.0000  1534319    0.06%
 612595 384979   263128.5000     7   263205.0000   263034.0000  1534320    0.06%
Elapsed time = 49.55 sec. (54511.44 ticks, tree = 167.33 MB, solutions = 27)
 657187 417584   263194.0000    11   263205.0000   263034.0000  1643387    0.06%
 657188 417585   263194.0000    10   263205.0000   263034.0000  1643389    0.06%
 657189 417586   263194.0000    12   263205.0000   263034.0000  1643391    0.06%
 657190 417586   263194.0000    12   263205.0000   263034.0000  1643392    0.06%
 657191 417587   263194.0000    12   263205.0000   263034.0000  1643394    0.06%
 657192 417588   263194.0000    10   263205.0000   263034.0000  1643395    0.06%
 657193 417587        cutoff         263205.0000   263034.0000  1643398    0.06%
 657194 417586        cutoff         263205.0000   263034.0000  1643401    0.06%
 657195 417587   263034.0000    15   263205.0000   263034.0000  1643405    0.06%
 657196 417588   263034.0000    14   263205.0000   263034.0000  1643409    0.06%
Elapsed time = 53.04 sec. (58327.40 ticks, tree = 183.13 MB, solutions = 27)
*669676+399041                       263194.0000   263034.0000             0.06%
*669676+380981                       263182.0000   263034.0000             0.06%
 694472 399682   263044.1111    15   263182.0000   263034.0000  1740809    0.06%
 694473 399683   263044.1111    15   263182.0000   263034.0000  1740811    0.06%
 694474 399684   263044.1111    14   263182.0000   263034.0000  1740814    0.06%
 694475 399685   263044.1111    14   263182.0000   263034.0000  1740818    0.06%
 694476 399686   263044.1111    14   263182.0000   263034.0000  1740819    0.06%
 694477 399687   263044.1111    15   263182.0000   263034.0000  1740821    0.06%
 694478 399688   263044.1111    14   263182.0000   263034.0000  1740824    0.06%
 694479 399689   263044.1111    14   263182.0000   263034.0000  1740825    0.06%
 694480 399690   263044.1111    15   263182.0000   263034.0000  1740832    0.06%
 694481 399691   263044.1111    16   263182.0000   263034.0000  1740837    0.06%
Elapsed time = 56.56 sec. (62142.70 ticks, tree = 175.61 MB, solutions = 29)
 739867 434495   263147.3333    16   263182.0000   263034.0000  1848064    0.06%
 739868 434496   263147.3333    16   263182.0000   263034.0000  1848065    0.06%
 739869 434497   263147.3333    16   263182.0000   263034.0000  1848066    0.06%
 739870 434498   263147.3333    16   263182.0000   263034.0000  1848067    0.06%
 739871 434499   263147.3333    15   263182.0000   263034.0000  1848068    0.06%
 739872 434500   263147.3333    16   263182.0000   263034.0000  1848069    0.06%
 739873 434501   263147.3333    16   263182.0000   263034.0000  1848070    0.06%
 739874 434502   263147.3333    16   263182.0000   263034.0000  1848071    0.06%
 739875 434503   263157.0000    13   263182.0000   263034.0000  1848072    0.06%
 739876 434504   263157.0000    13   263182.0000   263034.0000  1848073    0.06%
Elapsed time = 60.06 sec. (65959.13 ticks, tree = 189.38 MB, solutions = 29)
*746476+429874                       263177.0000   263034.0000             0.05%
*746576+330146                       263131.0000   263034.0000             0.04%
 775030 348787   263034.0000    15   263131.0000   263034.0000  1934143    0.04%
 775031 348788   263034.0000    15   263131.0000   263034.0000  1934146    0.04%
 775032 348789   263056.1250    12   263131.0000   263034.0000  1934150    0.04%
 775033 348789   263056.1250    12   263131.0000   263034.0000  1934151    0.04%
 775034 348789   263056.1250    12   263131.0000   263034.0000  1934152    0.04%
 775035 348790   263056.1250    12   263131.0000   263034.0000  1934153    0.04%
 775036 348790   263056.1250    12   263131.0000   263034.0000  1934154    0.04%
 775037 348789        cutoff         263131.0000   263034.0000  1934156    0.04%
 775038 348790   263034.0000    15   263131.0000   263034.0000  1934165    0.04%
 775039 348791   263034.0000    16   263131.0000   263034.0000  1934166    0.04%
Elapsed time = 63.64 sec. (69775.95 ticks, tree = 154.35 MB, solutions = 31)
 817619 379524   263119.5714    11   263131.0000   263034.0000  2035915    0.04%
 817620 379525   263119.5714    10   263131.0000   263034.0000  2035916    0.04%
 817621 379525   263119.5714    11   263131.0000   263034.0000  2035917    0.04%
 817622 379524    infeasible         263131.0000   263034.0000  2035917    0.04%
 817623 379523    infeasible         263131.0000   263034.0000  2035917    0.04%
 817624 379524   263096.0000    11   263131.0000   263034.0000  2035919    0.04%
 817625 379525   263096.0000    12   263131.0000   263034.0000  2035921    0.04%
 817626 379526   263096.0000    11   263131.0000   263034.0000  2035922    0.04%
 817627 379527   263096.0000    13   263131.0000   263034.0000  2035924    0.04%
 817628 379528   263096.0000    13   263131.0000   263034.0000  2035925    0.04%
Elapsed time = 67.13 sec. (73591.17 ticks, tree = 166.47 MB, solutions = 31)
 854403 403415   263034.0000    16   263131.0000   263034.0000  2127046    0.04%
 854404 403416   263034.0000    14   263131.0000   263034.0000  2127047    0.04%
 854405 403417   263034.0000    14   263131.0000   263034.0000  2127049    0.04%
 854406 403418   263034.0000    15   263131.0000   263034.0000  2127053    0.04%
 854407 403419   263034.0000    15   263131.0000   263034.0000  2127054    0.04%
 854408 403420   263034.0000    15   263131.0000   263034.0000  2127055    0.04%
 854409 403421   263034.0000    16   263131.0000   263034.0000  2127057    0.04%
 854410 403422   263034.0000    15   263131.0000   263034.0000  2127059    0.04%
 854411 403423   263034.0000    15   263131.0000   263034.0000  2127060    0.04%
 854412 403424   263034.0000    16   263131.0000   263034.0000  2127062    0.04%
Elapsed time = 70.71 sec. (77407.65 ticks, tree = 176.09 MB, solutions = 31)
 891413 425382   263034.0000    14   263131.0000   263034.0000  2218743    0.04%
 891414 425383   263034.0000    14   263131.0000   263034.0000  2218744    0.04%
 891415 425384   263034.0000    15   263131.0000   263034.0000  2218745    0.04%
 891416 425385   263034.0000    15   263131.0000   263034.0000  2218746    0.04%
 891417 425386   263034.0000    15   263131.0000   263034.0000  2218747    0.04%
 891418 425387   263034.0000    15   263131.0000   263034.0000  2218749    0.04%
 891419 425388   263034.0000    15   263131.0000   263034.0000  2218750    0.04%
 891420 425389   263121.0000    11   263131.0000   263034.0000  2218754    0.04%
 891421 425388        cutoff         263131.0000   263034.0000  2218756    0.04%
 891422 425389   263121.0000    11   263131.0000   263034.0000  2218757    0.04%
Elapsed time = 74.28 sec. (81223.04 ticks, tree = 185.01 MB, solutions = 31)
*907114 432312      integral     0   263130.0000   263034.0000  2257523    0.04%
 929294 445024   263120.0000    10   263130.0000   263034.0000  2315235    0.04%
 929295 445025   263120.0000     8   263130.0000   263034.0000  2315237    0.04%
 929296 445026   263120.0000     9   263130.0000   263034.0000  2315239    0.04%
 929297 445027   263120.0000     9   263130.0000   263034.0000  2315245    0.04%
 929298 445028   263120.0000     9   263130.0000   263034.0000  2315246    0.04%
 929299 445029   263120.0000    11   263130.0000   263034.0000  2315248    0.04%
 929300 445028        cutoff         263130.0000   263034.0000  2315250    0.04%
 929301 445027    infeasible         263130.0000   263034.0000  2315250    0.04%
 929302 445028   263120.0000    11   263130.0000   263034.0000  2315252    0.04%
 929303 445027        cutoff         263130.0000   263034.0000  2315255    0.04%
Elapsed time = 77.83 sec. (85038.29 ticks, tree = 193.11 MB, solutions = 32)
 968812 469197   263112.0000    14   263130.0000   263034.0000  2416209    0.04%
 968813 469198   263112.0000    14   263130.0000   263034.0000  2416210    0.04%
 968814 469199   263112.0000    14   263130.0000   263034.0000  2416212    0.04%
 968815 469200   263112.0000    14   263130.0000   263034.0000  2416213    0.04%
 968816 469201   263112.0000    12   263130.0000   263034.0000  2416214    0.04%
 968817 469202   263112.0000    13   263130.0000   263034.0000  2416216    0.04%
 968818 469201        cutoff         263130.0000   263034.0000  2416228    0.04%
 968819 469202   263112.0000    13   263130.0000   263034.0000  2416230    0.04%
 968820 469203   263112.0000    13   263130.0000   263034.0000  2416231    0.04%
 968821 469204   263112.0000    13   263130.0000   263034.0000  2416232    0.04%
Elapsed time = 81.33 sec. (88854.01 ticks, tree = 202.96 MB, solutions = 32)
*974576+421726                       263120.0000   263034.0000             0.03%
 1004046 439379   263034.0000    20   263120.0000   263034.0000  2504375    0.03%
 1004047 439380   263034.0000    19   263120.0000   263034.0000  2504376    0.03%
 1004048 439381   263034.0000    20   263120.0000   263034.0000  2504377    0.03%
 1004049 439382   263034.0000    20   263120.0000   263034.0000  2504378    0.03%
 1004050 439383   263034.0000    19   263120.0000   263034.0000  2504380    0.03%
 1004051 439382    infeasible         263120.0000   263034.0000  2504380    0.03%
 1004052 439383   263034.0000    19   263120.0000   263034.0000  2504383    0.03%
 1004053 439384   263034.0000    19   263120.0000   263034.0000  2504387    0.03%
 1004054 439385   263034.0000    17   263120.0000   263034.0000  2504390    0.03%
 1004055 439386   263034.0000    18   263120.0000   263034.0000  2504393    0.03%
Elapsed time = 84.91 sec. (92669.32 ticks, tree = 193.85 MB, solutions = 33)
 1037221 458431   263034.0000    19   263120.0000   263034.0000  2591101    0.03%
 1037222 458432   263034.0000    19   263120.0000   263034.0000  2591106    0.03%
 1037223 458433   263034.0000    17   263120.0000   263034.0000  2591108    0.03%
 1037224 458434   263086.0000    17   263120.0000   263034.0000  2591111    0.03%
 1037225 458435   263092.3333    16   263120.0000   263034.0000  2591114    0.03%
 1037226 458436   263092.3333    16   263120.0000   263034.0000  2591115    0.03%
 1037227 458437   263092.3333    16   263120.0000   263034.0000  2591116    0.03%
 1037228 458438   263092.3333    16   263120.0000   263034.0000  2591117    0.03%
 1037229 458439   263092.3333    16   263120.0000   263034.0000  2591118    0.03%
 1037230 458440   263092.3333    18   263120.0000   263034.0000  2591120    0.03%
Elapsed time = 88.48 sec. (96484.97 ticks, tree = 201.48 MB, solutions = 33)
 1063427 474667   263034.0000    16   263120.0000   263034.0000  2658309    0.03%
 1063428 474668   263034.0000    15   263120.0000   263034.0000  2658310    0.03%
 1063429 474669   263034.0000    16   263120.0000   263034.0000  2658311    0.03%
 1063430 474670   263034.0000    16   263120.0000   263034.0000  2658312    0.03%
 1063431 474671   263034.0000    15   263120.0000   263034.0000  2658313    0.03%
 1063432 474672   263034.0000    16   263120.0000   263034.0000  2658314    0.03%
 1063433 474673   263034.0000    16   263120.0000   263034.0000  2658316    0.03%
 1063434 474674   263034.0000    16   263120.0000   263034.0000  2658317    0.03%
 1063435 474675   263034.0000    18   263120.0000   263034.0000  2658319    0.03%
 1063436 474676   263054.8000    17   263120.0000   263034.0000  2658323    0.03%
Elapsed time = 91.99 sec. (100300.24 ticks, tree = 207.97 MB, solutions = 33)
 1098955 495915   263115.0000    11   263120.0000   263034.0000  2749933    0.03%
 1098956 495916   263115.0000    11   263120.0000   263034.0000  2749936    0.03%
 1098957 495917   263115.0000    12   263120.0000   263034.0000  2749950    0.03%
 1098958 495918   263115.0000    12   263120.0000   263034.0000  2749953    0.03%
 1098959 495917        cutoff         263120.0000   263034.0000  2749954    0.03%
 1098960 495916        cutoff         263120.0000   263034.0000  2749956    0.03%
 1098961 495917   263034.0000    16   263120.0000   263034.0000  2749960    0.03%
 1098962 495918   263034.0000    16   263120.0000   263034.0000  2749962    0.03%
 1098963 495919   263034.0000    16   263120.0000   263034.0000  2749965    0.03%
 1098964 495920   263034.0000    16   263120.0000   263034.0000  2749966    0.03%
Elapsed time = 95.51 sec. (104117.34 ticks, tree = 216.50 MB, solutions = 33)
*1107076+408479                       263100.0000   263034.0000             0.03%
*1126376+412034                       263098.0000   263034.0000             0.02%
 1128461 413279   263034.0000    19   263098.0000   263034.0000  2832751    0.02%
 1128462 413278    infeasible         263098.0000   263034.0000  2832751    0.02%
 1128463 413279   263034.0000    17   263098.0000   263034.0000  2832753    0.02%
 1128464 413278        cutoff         263098.0000   263034.0000  2832756    0.02%
 1128465 413277        cutoff         263098.0000   263034.0000  2832758    0.02%
 1128466 413278   263034.0000    17   263098.0000   263034.0000  2832767    0.02%
 1128467 413279   263034.0000    18   263098.0000   263034.0000  2832770    0.02%
 1128468 413280   263034.0000    17   263098.0000   263034.0000  2832777    0.02%
 1128469 413281   263034.0000    17   263098.0000   263034.0000  2832778    0.02%
 1128470 413282   263034.0000    16   263098.0000   263034.0000  2832786    0.02%
Elapsed time = 99.15 sec. (107933.56 ticks, tree = 183.15 MB, solutions = 35)

Cover cuts applied:  1
Mixed integer rounding cuts applied:  2
Zero-half cuts applied:  1
Gomory fractional cuts applied:  1

Root node processing (before b&c):
  Real time             =    0.09 sec. (102.61 ticks)
Sequential b&c:
  Real time             =   99.91 sec. (108916.58 ticks)
                          ------------
Total (root+branch&cut) =  100.00 sec. (109019.19 ticks)

Solution pool: 35 solutions saved.

MIP - Time limit exceeded, integer feasible:  Objective =  2.6309800000e+05
Current MIP best bound =  2.6303400000e+05 (gap = 64, 0.02%)
Solution time =  100.00 sec.  Iterations = 2854284  Nodes = 1136724 (418288)
Deterministic time = 109019.20 ticks  (1090.18 ticks/sec)


Incumbent solution written to file '/tmp/tmpVa4Inm.cplex.sol'.
